
Gurobi 9.5.1 (linux64) logging started Mon 06 Jun 2022 10:48:26 AM MST

Set parameter LogFile to value "/home/local/ASUAD/kmajd1/NNRepLayer_v2/demos/examples/tc7_walking_example/repair_net/logs/opt_log_64_nodes_layer4_150_6_6_2022_10_48_14.log"
Gurobi Optimizer version 9.5.1 build v9.5.1rc2 (linux64)
Thread count: 48 physical cores, 96 logical processors, using up to 32 threads
Optimize a model with 580 rows, 216 columns and 3036 nonzeros
Model fingerprint: 0x3b560638
Model has 151 quadratic objective terms
Coefficient statistics:
  Matrix range     [7e-04, 1e+01]
  Objective range  [2e-03, 3e+01]
  QObjective range [1e+00, 2e+00]
  Bounds range     [1e+01, 4e+01]
  RHS range        [1e-03, 3e+01]
Presolve removed 336 rows and 18 columns
Presolve time: 0.00s
Presolved: 244 rows, 198 columns, 2664 nonzeros
Presolved model has 151 quadratic objective terms
Ordering time: 0.00s

Barrier statistics:
 Dense cols : 24
 AA' NZ     : 4.155e+03
 Factor NZ  : 5.618e+03
 Factor Ops : 1.797e+05 (less than 1 second per iteration)
 Threads    : 1

                  Objective                Residual
Iter       Primal          Dual         Primal    Dual     Compl     Time
   0   2.38547751e+07 -3.79069413e+07  8.67e+03 4.13e+02  8.73e+05     0s
   1   1.10339643e+07 -2.42290998e+07  5.76e+03 2.74e+02  5.87e+05     0s
   2   3.81627387e+05 -1.49886769e+07  1.19e+03 5.69e+01  1.72e+05     0s
   3   2.31226564e+04 -8.44030240e+06  1.78e+01 8.47e-01  1.88e+04     0s
   4   2.46784381e+04 -1.20066481e+06  1.78e-05 8.47e-07  2.50e+03     0s
   5   1.58794621e+04 -3.81080982e+04  4.07e-07 1.94e-08  1.10e+02     0s
   6   3.44287812e+03 -1.58222026e+04  3.98e-13 1.22e-11  3.93e+01     0s
   7   1.58199189e+03 -3.25322462e+02  4.26e-14 9.10e-12  3.89e+00     0s
   8   1.24083576e+03  6.87434781e+02  4.26e-14 1.11e-10  1.13e+00     0s
   9   1.16711267e+03  1.02858875e+03  2.13e-14 9.13e-10  2.83e-01     0s
  10   1.15881967e+03  1.12296742e+03  2.56e-13 5.03e-10  7.32e-02     0s
  11   1.15550931e+03  1.14875274e+03  3.48e-13 7.96e-10  1.38e-02     0s
  12   1.15487569e+03  1.15439472e+03  3.91e-13 1.31e-10  9.82e-04     0s
  13   1.15484896e+03  1.15484597e+03  1.61e-12 1.77e-09  6.11e-06     0s
  14   1.15484835e+03  1.15484831e+03  4.26e-14 1.04e-09  9.63e-08     0s
  15   1.15484835e+03  1.15484835e+03  2.80e-10 2.15e-09  1.36e-10     0s

Barrier solved model in 15 iterations and 0.01 seconds (0.01 work units)
Optimal objective 1.15484835e+03

